data/benchmarks/bayes/75-15-8-q.cnf
p cnf 1065 1077
c weights 0.304002 0.695998 1 1 1 1 1 1 1 1 1 1 1 1 1 1 1 1 1 1 1 1 1 1 1 1 1 1 1 1 1 1 1 1 1 1 1 1 1 1 1 1 1 1 1 1 1 1 1 1 1 1 1 1 1 1 1 1 1 1 1 1 1 1 1 1 1 1 1 1 1 1 1 1 1 1 1 1 1 1 1 1 1 1 1 1 1 1 1 1 1 1 1 1 1 1 1 1 1 1 1 1 1 1 1 1 1 1 1 1 1 1 1 1 1 1 1 1 1 1 1 1 1 1 1 1 1 1 1 1 1 1 1 1 1 1 1 1 1 1 1 1 1 1 1 1 1 1 1 1 1 1 1 1 1 1 1 1 1 1 1 1 1 1 1 1 1 1 1 1 1 1 1 1 1 1 1 1 1 1 1 1 1 1 1 1 1 1 1 1 1 1 1 1 1 1 1 1 1 1 1 1 1 1 1 1 1 1 1 1 1 1 1 1 1 1 1 1 1 1 1 1 1 1 1 1 1 1 1 1 1 1 1 1 1 1 1 1 1 1 1 1 1 1 1 1 1 1 1 1 1 1 1 1 1 1 1 1 1 1 1 1 1 1 1 1 1 1 1 1 1 1 1 1 1 1 1 1 1 1 1 1 1 1 1 1 1 1 1 1 1 1 1 1 1 1 1 1 1 1 1 1 1 1 1 1 1 1 1 1 1 1 1 1 1 1 1 1 1 1 1 1 1 1 1 1 1 1 1 1 1 1 1 1 1 1 1 1 1 1 1 1 1 1 1 1 1 1 1 1 1 1 1 1 1 1 1 1 1 1 1 1 1 1 1 1 1 1 1 1 1 1 1 1 1 1 1 1 1 1 1 1 1 1 1 1 1 1 1 1 1 1 1 1 1 1 1 1 1 1 1 1 1 1 1 1 1 1 1 1 1 1 1 1 1 1 1 1 1 1 1 1 1 1 1 1 1 1 1 1 1 1 1 1 1 1 1 1 1 1 1 1 1 1 1 1 1 1 1 1 0.5 0.5 0.5 0.5 0.927506 0.07249399999999995 0.163175 0.836825 0.739012 0.260988 0.669874 0.33012600000000003 0.5 0.5 0.5 0.5 0.5 0.5 0.5 0.5 0.5 0.5 0.5 0.5 0.5 0.5 0.5 0.5 0.5 0.5 0.5 0.5 0.5 0.5 0.5 0.5 0.0444537 0.9555463 0.0607375 0.9392625 0.5 0.5 0.5 0.5 0.5 0.5 0.5 0.5 0.5 0.5 0.5 0.5 0.5 0.5 0.5 0.5 0.5 0.5 0.5 0.5 0.0360912 0.9639088 0.785957 0.21404299999999998 0.652223 0.347777 0.775104 0.22489599999999998 0.5 0.5 0.5 0.5 0.5 0.5 0.5 0.5 0.815346 0.18465399999999998 0.852849 0.14715100000000003 0.504014 0.49598600000000004 0.551325 0.44867500000000005 0.5 0.5 0.5 0.5 0.5 0.5 0.5 0.5 0.5 0.5 0.5 0.5 0.5 0.5 0.5 0.5 0.5 0.5 0.5 0.5 0.5 0.5 0.5 0.5 0.482018 0.5179819999999999 0.511067 0.48893299999999995 0.667545 0.33245499999999995 0.134242 0.865758 0.5 0.5 0.5 0.5 0.5 0.5 0.5 0.5 0.292877 0.707123 0.143765 0.856235 0.768138 0.231862 0.796892 0.20310799999999996 0.5 0.5 0.5 0.5 0.5 0.5 0.5 0.5 0.5 0.5 0.5 0.5 0.5 0.5 0.5 0.5 0.990584 0.00941599999999998 0.775165 0.224835 0.420356 0.579644 0.465559 0.5344409999999999 0.5 0.5 0.5 0.5 0.5 0.5 0.5 0.5 0.5 0.5 0.5 0.5 0.5 0.5 0.5 0.5 0.5 0.5 0.5 0.5 0.0346449 0.9653551 0.804973 0.19502699999999995 0.614947 0.385053 0.89433 0.10567000000000004 0.5 0.5 0.5 0.5 0.5 0.5 0.5 0.5 0.5 0.5 0.5 0.5 0.5 0.5 0.5 0.5 0.5 0.5 0.5 0.5 0.5 0.5 0.5 0.5 0.735347 0.264653 0.854975 0.14502499999999996 0.805878 0.19412200000000002 0.998144 0.0018559999999999688 0.5 0.5 0.5 0.5 0.5 0.5 0.5 0.5 0.5 0.5 0.5 0.5 0.5 0.5 0.5 0.5 0.5 0.5 0.5 0.5 0.5 0.5 0.5 0.5 0.546586 0.453414 0.0554198 0.9445802 0.108718 0.891282 0.645347 0.354653 0.5 0.5 0.5 0.5 0.5 0.5 0.5 0.5 0.5 0.5 0.5 0.5 0.5 0.5 0.5 0.5 0.207574 0.792426 0.101076 0.8989240000000001 0.60744 0.39256 0.286315 0.713685 0.5 0.5 0.5 0.5 0.5 0.5 0.5 0.5 0.335503 0.664497 0.683808 0.31619200000000003 0.0262139 0.9737861 0.299688 0.700312 0.5 0.5 0.5 0.5 0.111783 0.888217 0.941073 0.05892699999999995 0.49162 0.50838 0.613735 0.38626499999999997 0.5 0.5 0.5 0.5 0.5 0.5 0.5 0.5 0.5 0.5 0.5 0.5 0.5 0.5 0.5 0.5 0.5 0.5 0.5 0.5 0.5 0.5 0.5 0.5 0.5 0.5 0.5 0.5 0.5 0.5 0.5 0.5 0.5 0.5 0.5 0.5 0.5 0.5 0.5 0.5 0.5 0.5 0.5 0.5 0.5 0.5 0.5 0.5 0.5 0.5 0.5 0.5 0.5 0.5 0.5 0.5 0.5 0.5 0.5 0.5 0.5 0.5 0.5 0.5 0.857264 0.14273599999999997 0.884496 0.11550400000000005 0.883302 0.11669799999999997 0.31692 0.68308 0.5 0.5 0.5 0.5 0.5 0.5 0.5 0.5 0.5 0.5 0.5 0.5 0.5 0.5 0.5 0.5 0.875354 0.12464600000000003 0.720399 0.279601 0.729826 0.270174 0.318022 0.681978 0.5 0.5 0.5 0.5 0.5 0.5 0.5 0.5 0.5 0.5 0.5 0.5 0.5 0.5 0.5 0.5 0.5 0.5 0.5 0.5 0.5 0.5 0.5 0.5 0.5 0.5 0.5 0.5 0.5 0.5 0.5 0.5 0.5 0.5 0.5 0.5 0.5 0.5 0.5 0.5 0.5 0.5 0.5 0.5 0.5 0.5 0.5 0.5 0.5 0.5 0.5 0.5 0.5 0.5 0.5 0.5 0.5 0.5 0.5 0.5 0.5 0.5 0.5 0.5 0.5 0.5 0.5 0.5 0.5 0.5 0.5 0.5 0.5 0.5 0.5 0.5 0.5 0.5 0.5 0.5 0.5 0.5 0.5 0.5 0.262816 0.7371840000000001 0.0672154 0.9327846 0.649427 0.350573 0.980132 0.019867999999999997 0.5 0.5 0.5 0.5 0.5 0.5 0.5 0.5 0.235633 0.764367 0.0510433 0.9489567 0.706987 0.29301299999999997 0.665621 0.334379 0.5 0.5 0.5 0.5 0.5 0.5 0.5 0.5 0.899752 0.100248 0.0871851 0.9128149 0.274651 0.725349 0.780755 0.21924500000000002 0.5 0.5 0.5 0.5 0.5 0.5 0.5 0.5 0.5 0.5 0.5 0.5 0.882336 0.11766399999999999 0.657696 0.34230400000000005 0.85157 0.14842999999999995 0.14727 0.85273 0.5 0.5 0.5 0.5 0.5 0.5 0.5 0.5 0.5 0.5 0.5 0.5 0.5 0.5 0.5 0.5 0.5 0.5 0.5 0.5 0.5 0.5 0.5 0.5 0.5 0.5 0.5 0.5 0.5 0.5 0.5 0.5 0.5 0.5 0.5 0.5 0.5 0.5 0.5 0.5 0.709481 0.29051899999999997 0.933168 0.066832 0.623973 0.376027 0.85675 0.14325 0.5 0.5 0.5 0.5 0.5 0.5 0.5 0.5 0.655606 0.344394 0.116292 0.8837079999999999 0.0308316 0.9691684 0.626562 0.37343800000000005 0.5 0.5 0.5 0.5 0.5 0.5 0.5 0.5 0.5 0.5 0.5 0.5 0.5 0.5 0.5 0.5 0.5 0.5 0.5 0.5 0.5 0.5 0.5 0.5 0.5 0.5 0.5 0.5 0.5 0.5 0.5 0.5 0.5 0.5 0.5 0.5 0.5 0.5 0.5 0.5 0.5 0.5 0.5 0.5 0.5 0.5 0.5 0.5 0.5 0.5 0.5 0.5 0.655105 0.34489499999999995 0.0681385 0.9318615 0.573708 0.426292 0.718439 0.28156099999999995 0.5 0.5 0.5 0.5 0.5 0.5 0.5 0.5 0.93881 0.06118999999999997 0.520615 0.47938499999999995 0.929202 0.07079800000000003 0.108706 0.891294 0.5 0.5 0.5 0.5 0.5 0.5 0.5 0.5 0.5 0.5 0.5 0.5 0.5 0.5 0.5 0.5 0.5 0.5 0.5 0.5 0.5 0.5 0.5 0.5 0.176094 0.823906 0.198293 0.801707 0.527846 0.47215399999999996 0.894533 0.10546699999999998 0.5 0.5 0.5 0.5 0.5 0.5 0.5 0.5 0.5 0.5 0.5 0.5 0.5 0.5 0.5 0.5 0.5 0.5 0.5 0.5 0.5 0.5 0.5 0.5 0.703723 0.296277 0.0366097 0.9633903 0.816622 0.18337800000000004 0.415226 0.584774 0.5 0.5 0.5 0.5 0.5 0.5 0.5 0.5 0.5 0.5 0.5 0.5 0.5 0.5 0.5 0.5 0.5 0.5 0.5 0.5 0.5 0.5 0.5 0.5 0.5 0.5 0.5 0.5 0.5 0.5 0.5 0.5 0.5 0.5 0.5 0.5 0.5 0.5 0.5 0.5 0.5 0.5 0.5 0.5 0.454919 0.5450809999999999 0.298265 0.701735 0.812729 0.18727099999999997 0.563514 0.43648600000000004 0.200047 0.799953 0.802263 0.19773700000000005 0.372221 0.627779 0.763459 0.236541 0.5 0.5 0.5 0.5 0.5 0.5 0.5 0.5 0.5 0.5 0.5 0.5 0.5 0.5 0.5 0.5 0.10922 0.89078 0.649209 0.35079099999999996 0.291446 0.708554 0.273663 0.726337 0.627417 0.372583 0.0623358 0.9376642 0.0620619 0.9379381 0.66711 0.33289 0.00846196 0.99153804 0.122029 0.8779710000000001 0.185884 0.8141160000000001 0.821191 0.178809 0.5 0.5 0.5 0.5 0.5 0.5 0.5 0.5 0.727112 0.272888 0.830392 0.16960799999999998 0.00609931 0.99390069 0.75233 0.24766999999999995 0.5 0.5 0.5 0.5 0.5 0.5 0.5 0.5 0.5 0.5 0.5 0.5 0.5 0.5 0.5 0.5 0.5 0.5 0.5 0.5 0.5 0.5 0.5 0.5 0.5 0.5 0.5 0.5 0.5 0.5 0.5 0.5 0.5 0.5 0.5 0.5 0.5 0.5 0.5 0.5 0.5 0.5 0.5 0.5 0.5 0.5 0.5 0.5 0.5 0.5 0.5 0.5 0.5 0.5 0.5 0.5 0.5 0.5 0.5 0.5 0.5 0.5 0.5 0.5 0.5 0.5 0.5 0.5 0.5 0.5 0.5 0.5 0.5 0.5 0.5 0.5 0.5 0.5 0.5 0.5 0.5 0.5 0.5 0.5 0.5 0.5 0.5 0.5 0.5 0.5 0.5 0.5 0.259725 0.740275 0.933024 0.06697600000000004 0.291847 0.708153 0.504152 0.49584799999999996 0.5 0.5 0.5 0.5 0.5 0.5 0.5 0.5 0.5 0.5 0.5 0.5 0.5 0.5 0.5 0.5 0.586411 0.413589 0.62199 0.37800999999999996 0.317621 0.6823790000000001 0.327248 0.672752 0.5 0.5 0.5 0.5 0.430652 0.569348 0.972411 0.027588999999999975 0.977787 0.02221300000000004 0.762014 0.23798600000000003 0.5 0.5 0.5 0.5 0.5 0.5 0.5 0.5 0.5 0.5 0.5 0.5 0.5 0.5 0.5 0.5 0.5 0.5 0.5 0.5 0.5 0.5 0.5 0.5 0.5 0.5 0.5 0.5 0.5 0.5 0.5 0.5 0.5 0.5 0.5 0.5 0.5 0.5 0.5 0.5 0.5 0.5 0.5 0.5 0.5 0.5 0.5 0.5 0.5 0.5 0.5 0.5 0.5 0.5 0.5 0.5 0.5 0.5 0.5 0.5 0.5 0.5 0.5 0.5 0.5 0.5 0.5 0.5 0.5 0.5 0.5 0.5 0.5 0.5 0.5 0.5 0.5 0.5 0.5 0.5 0.5 0.5 0.5 0.5 0.5 0.5 0.5 0.5 0.523823 0.47617699999999996 0.527333 0.47266699999999995 0.630395 0.36960499999999996 0.695363 0.30463700000000005 0.5 0.5 0.5 0.5 0.5 0.5 0.5 0.5 0.5 0.5 0.5 0.5 0.231828 0.768172 0.695407 0.304593 0.897271 0.10272899999999996 0.73959 0.26041000000000003 0.756157 0.24384300000000003 0.595644 0.40435600000000005 0.418319 0.581681 0.04576 0.95424 0.5 0.5 0.5 0.5 0.5 0.5 0.5 0.5 0.5 0.5 0.5 0.5 0.5 0.5 0.5 0.5 0.420594 0.579406 0.446178 0.553822 0.566969 0.43303100000000005 0.717267 0.282733 0.5 0.5 0.5 0.5 0.5 0.5 0.5 0.5 0.5 0.5 0.5 0.5 0.5 0.5 0.5 0.5 0.5 0.5 0.5 0.5 0.5 0.5 0.5 0.5 0.5 0.5 0.5 0.5 0.5 0.5 0.5 0.5 0.5 0.5 0.5 0.5 0.5 0.5 0.5 0.5 0.800299 0.19970100000000002 0.848533 0.15146700000000002 0.286534 0.7134659999999999 0.367268 0.6327320000000001 0.5 0.5 0.5 0.5 0.5 0.5 0.5 0.5 0.5 0.5 0.5 0.5 0.5 0.5 0.5 0.5 0.656735 0.34326500000000004 0.772211 0.22778900000000002 0.974352 0.025648000000000004 0.767601 0.23239900000000002 0.5 0.5 0.5 0.5 0.5 0.5 0.5 0.5 0.5 0.5 0.5 0.5 0.5 0.5 0.5 0.5 0.5 0.5 0.5 0.5 0.5 0.5 0.5 0.5 0.5 0.5 0.5 0.5 0.5 0.5 0.5 0.5 0.5 0.5 0.5 0.5 0.5 0.5 0.5 0.5 0.5 0.5 0.5 0.5 0.5 0.5 0.5 0.5 0.5 0.5 0.5 0.5 0.0850588 0.9149412 0.941293 0.058706999999999954 0.370773 0.629227 0.734683 0.265317 0.865308 0.13469200000000003 0.313001 0.686999 0.261281 0.738719 0.200199 0.799801 0.5 0.5 0.5 0.5 0.5 0.5 0.5 0.5 0.5 0.5 0.5 0.5 0.5 0.5 0.5 0.5 0.0146819 0.9853181 0.484926 0.515074 0.279778 0.7202219999999999 0.74678 0.25322 0.775574 0.22442600000000001 0.246479 0.753521 0.00672715 0.99327285 0.30552 0.69448 0.5 0.5 0.5 0.5 0.5 0.5 0.5 0.5 0.5 0.5 0.5 0.5 0.5 0.5 0.5 0.5 0.405192 0.594808 0.268592 0.7314080000000001 0.5 0.5 0.5 0.5 0.5 0.5 0.5 0.5 0.5 0.5 0.5 0.5 0.5 0.5 0.5 0.5 0.974843 0.025156999999999985 0.848543 0.15145699999999995 0.754579 0.245421 0.221322 0.778678 0.0600988 0.9399012 0.368611 0.631389 0.947056 0.05294399999999999 0.306912 0.6930879999999999 0.773525 0.22647499999999998 0.441042 0.5589580000000001 0.270042 0.729958 0.912994 0.08700600000000003 0.853611 0.146389 0.744082 0.255918 0.715643 0.28435699999999997 0.258803 0.741197 0.5 0.5 0.5 0.5 0.5 0.5 0.5 0.5 0.500117 0.49988299999999997 0.861694 0.13830600000000004 0.642617 0.357383 0.728179 0.271821 0.5 0.5 0.5 0.5 0.5 0.5 0.5 0.5 0.423668 0.5763320000000001 0.436299 0.563701 0.292954 0.7070460000000001 0.370724 0.629276 0.5 0.5 0.5 0.5 0.5 0.5 0.5 0.5 0.5 0.5 0.5 0.5 0.5 0.5 0.5 0.5 0.5 0.5 0.5 0.5 0.5 0.5 0.5 0.5 0.5 0.5 0.5 0.5 0.5 0.5 0.5 0.5 0.5 0.5 0.5 0.5 0.0320537 0.9679463 0.241663 0.758337 0.148407 0.851593 0.956397 0.04360299999999995 0.5 0.5 0.5 0.5 0.5 0.5 0.5 0.5 0.5 0.5 0.5 0.5 0.5 0.5 0.5 0.5 0.5 0.5 0.5 0.5 0.5 0.5 0.5 0.5 0.308586 0.691414 0.953608 0.04639199999999999 0.964196 0.03580399999999995 0.816554 0.183446 0.5 0.5 0.5 0.5 0.5 0.5 0.5 0.5 0.5 0.5 0.5 0.5 0.5 0.5 0.5 0.5 0.5 0.5 0.5 0.5 0.5 0.5 0.5 0.5 0.5 0.5 0.5 0.5 0.5 0.5 0.5 0.5 0.610847 0.38915299999999997 0.990645 0.009355000000000002 0.114648 0.885352 0.354855 0.6451450000000001 0.987129 0.012870999999999966 0.663442 0.336558 0.797125 0.20287500000000003 0.951326 0.048673999999999995 0.5 0.5 0.5 0.5 0.5 0.5 0.5 0.5 0.5 0.5 0.5 0.5 0.5 0.5 0.5 0.5 0.5 0.5 0.5 0.5 0.5 0.5 0.5 0.5 0.5 0.5 0.5 0.5 0.5 0.5 0.5 0.5 0.5 0.5 0.5 0.5 0.5 0.5 0.5 0.5 0.5 0.5 0.5 0.5 0.5 0.5 0.5 0.5 0.5 0.5 0.5 0.5 0.427074 0.572926 0.679328 0.32067199999999996 0.20806 0.79194 0.886874 0.11312599999999995 0.358682 0.641318 0.179208 0.820792 0.940045 0.05995499999999998 0.381246 0.618754 0.48674 0.51326 0.525105 0.47489499999999996 0.293522 0.7064779999999999 0.833811 0.16618900000000003 0.5 0.5 0.5 0.5 0.5 0.5 0.5 0.5 0.0761881 0.9238119 0.302733 0.6972670000000001 0.618157 0.38184300000000004 0.164942 0.835058 0.5 0.5 0.5 0.5 0.5 0.5 0.5 0.5 0.5 0.5 0.5 0.5 0.5 0.5 0.5 0.5 0.5 0.5 0.5 0.5 0.5 0.5 0.5 0.5 0.5 0.5 0.5 0.5 0.5 0.5 0.5 0.5 0.5 0.5 0.5 0.5 0.5 0.5 0.5 0.5 0.495771 0.504229 0.0651183 0.9348817 0.99714 0.0028599999999999737 0.622779 0.37722100000000003
-1 2 0
1 -2 0
-2 -228 3 0
-2 228 -3 0
2 -229 3 0
2 229 -3 0
-3 -230 4 0
-3 230 -4 0
3 -231 4 0
3 231 -4 0
-4 -5 0
4 5 0
-5 -6 0
5 6 0
-6 -7 0
6 7 0
-7 -8 0
7 8 0
-8 -9 0
8 9 0
-9 -10 0
9 10 0
-10 -244 11 0
-10 244 -11 0
10 -245 11 0
10 245 -11 0
-11 -12 0
11 12 0
-12 13 0
12 -13 0
-13 14 0
13 -14 0
-14 -15 0
14 15 0
-1 -16 0
1 16 0
-16 -2 -256 17 0
-16 -2 256 -17 0
-16 2 -257 17 0
-16 2 257 -17 0
16 -2 -258 17 0
16 -2 258 -17 0
16 2 -259 17 0
16 2 259 -17 0
-17 -3 -18 0
-17 3 -18 0
17 -3 18 0
17 3 -18 0
-18 -4 -264 19 0
-18 -4 264 -19 0
-18 4 -265 19 0
-18 4 265 -19 0
18 -4 -266 19 0
18 -4 266 -19 0
18 4 -267 19 0
18 4 267 -19 0
-19 -5 -20 0
-19 5 -20 0
19 -5 -20 0
19 5 20 0
-20 -6 -21 0
-20 6 21 0
20 -6 21 0
20 6 21 0
-21 -7 22 0
-21 7 -22 0
21 -7 -22 0
21 7 22 0
-22 -8 -280 23 0
-22 -8 280 -23 0
-22 8 -281 23 0
-22 8 281 -23 0
22 -8 -282 23 0
22 -8 282 -23 0
22 8 -283 23 0
22 8 283 -23 0
-23 -9 24 0
-23 9 24 0
23 -9 -24 0
23 9 -24 0
-24 -10 -288 25 0
-24 -10 288 -25 0
-24 10 -289 25 0
-24 10 289 -25 0
24 -10 -290 25 0
24 -10 290 -25 0
24 10 -291 25 0
24 10 291 -25 0
-25 -11 -26 0
-25 11 26 0
25 -11 26 0
25 11 26 0
-26 -12 27 0
-26 12 27 0
26 -12 -27 0
26 12 -27 0
-27 -13 -300 28 0
-27 -13 300 -28 0
-27 13 -301 28 0
-27 13 301 -28 0
27 -13 -302 28 0
27 -13 302 -28 0
27 13 -303 28 0
27 13 303 -28 0
-28 -14 29 0
-28 14 -29 0
28 -14 -29 0
28 14 29 0
-29 -15 30 0
-29 15 -30 0
29 -15 -30 0
29 15 -30 0
-16 31 0
16 -31 0
-31 -17 -314 32 0
-31 -17 314 -32 0
-31 17 -315 32 0
-31 17 315 -32 0
31 -17 -316 32 0
31 -17 316 -32 0
31 17 -317 32 0
31 17 317 -32 0
-32 -18 33 0
-32 18 -33 0
32 -18 33 0
32 18 -33 0
-33 -19 -34 0
-33 19 -34 0
33 -19 34 0
33 19 -34 0
-34 -20 35 0
-34 20 35 0
34 -20 -35 0
34 20 35 0
-35 -21 -330 36 0
-35 -21 330 -36 0
-35 21 -331 36 0
-35 21 331 -36 0
35 -21 -332 36 0
35 -21 332 -36 0
35 21 -333 36 0
35 21 333 -36 0
-36 -22 -37 0
-36 22 37 0
36 -22 37 0
36 22 -37 0
-37 -23 38 0
-37 23 -38 0
37 -23 -38 0
37 23 38 0
-38 -24 39 0
-38 24 -39 0
38 -24 39 0
38 24 -39 0
-39 -25 -346 40 0
-39 -25 346 -40 0
-39 25 -347 40 0
-39 25 347 -40 0
39 -25 -348 40 0
39 -25 348 -40 0
39 25 -349 40 0
39 25 349 -40 0
-40 -26 -41 0
-40 26 -41 0
40 -26 -41 0
40 26 41 0
-41 -27 -42 0
-41 27 42 0
41 -27 -42 0
41 27 42 0
-42 -28 -358 43 0
-42 -28 358 -43 0
-42 28 -359 43 0
-42 28 359 -43 0
42 -28 -360 43 0
42 -28 360 -43 0
42 28 -361 43 0
42 28 361 -43 0
-43 -29 44 0
-43 29 -44 0
43 -29 44 0
43 29 44 0
-44 -30 -366 45 0
-44 -30 366 -45 0
-44 30 -367 45 0
-44 30 367 -45 0
44 -30 -368 45 0
44 -30 368 -45 0
44 30 -369 45 0
44 30 369 -45 0
-31 46 0
31 -46 0
-46 -32 -372 47 0
-46 -32 372 -47 0
-46 32 -373 47 0
-46 32 373 -47 0
46 -32 -374 47 0
46 -32 374 -47 0
46 32 -375 47 0
46 32 375 -47 0
-47 -33 -48 0
-47 33 48 0
47 -33 48 0
47 33 48 0
-48 -34 -49 0
-48 34 -49 0
48 -34 49 0
48 34 -49 0
-49 -35 -50 0
-49 35 50 0
49 -35 -50 0
49 35 -50 0
-50 -36 -51 0
-50 36 51 0
50 -36 51 0
50 36 51 0
-51 -37 52 0
-51 37 -52 0
51 -37 52 0
51 37 52 0
-52 -38 53 0
-52 38 -53 0
52 -38 -53 0
52 38 53 0
-53 -39 -54 0
-53 39 -54 0
53 -39 54 0
53 39 54 0
-54 -40 -55 0
-54 40 -55 0
54 -40 55 0
54 40 55 0
-55 -41 -408 56 0
-55 -41 408 -56 0
-55 41 -409 56 0
-55 41 409 -56 0
55 -41 -410 56 0
55 -41 410 -56 0
55 41 -411 56 0
55 41 411 -56 0
-56 -42 -57 0
-56 42 57 0
56 -42 57 0
56 42 -57 0
-57 -43 58 0
-57 43 58 0
57 -43 -58 0
57 43 58 0
-58 -44 -420 59 0
-58 -44 420 -59 0
-58 44 -421 59 0
-58 44 421 -59 0
58 -44 -422 59 0
58 -44 422 -59 0
58 44 -423 59 0
58 44 423 -59 0
-59 -45 -60 0
-59 45 -60 0
59 -45 60 0
59 45 60 0
-46 61 0
46 -61 0
-61 -47 62 0
-61 47 -62 0
61 -47 62 0
61 47 -62 0
-62 -48 63 0
-62 48 -63 0
62 -48 -63 0
62 48 63 0
-63 -49 64 0
-63 49 64 0
63 -49 -64 0
63 49 64 0
-64 -50 -65 0
-64 50 65 0
64 -50 65 0
64 50 65 0
-65 -51 66 0
-65 51 -66 0
65 -51 -66 0
65 51 66 0
-66 -52 -67 0
-66 52 -67 0
66 -52 -67 0
66 52 67 0
-67 -53 -68 0
-67 53 68 0
67 -53 -68 0
67 53 68 0
-68 -54 69 0
-68 54 69 0
68 -54 69 0
68 54 -69 0
-69 -55 70 0
-69 55 70 0
69 -55 70 0
69 55 -70 0
-70 -56 -466 71 0
-70 -56 466 -71 0
-70 56 -467 71 0
-70 56 467 -71 0
70 -56 -468 71 0
70 -56 468 -71 0
70 56 -469 71 0
70 56 469 -71 0
-71 -57 -72 0
-71 57 72 0
71 -57 72 0
71 57 72 0
-72 -58 -474 73 0
-72 -58 474 -73 0
-72 58 -475 73 0
-72 58 475 -73 0
72 -58 -476 73 0
72 -58 476 -73 0
72 58 -477 73 0
72 58 477 -73 0
-73 -59 74 0
-73 59 74 0
73 -59 -74 0
73 59 74 0
-74 -60 -482 75 0
-74 -60 482 -75 0
-74 60 -483 75 0
-74 60 483 -75 0
74 -60 -484 75 0
74 -60 484 -75 0
74 60 -485 75 0
74 60 485 -75 0
-61 76 0
61 -76 0
-76 -62 -77 0
-76 62 77 0
76 -62 -77 0
76 62 -77 0
-77 -63 -492 78 0
-77 -63 492 -78 0
-77 63 -493 78 0
-77 63 493 -78 0
77 -63 -494 78 0
77 -63 494 -78 0
77 63 -495 78 0
77 63 495 -78 0
-78 -64 79 0
-78 64 -79 0
78 -64 -79 0
78 64 -79 0
-79 -65 80 0
-79 65 -80 0
79 -65 -80 0
79 65 80 0
-80 -66 81 0
-80 66 81 0
80 -66 -81 0
80 66 -81 0
-81 -67 -82 0
-81 67 82 0
81 -67 -82 0
81 67 82 0
-82 -68 83 0
-82 68 -83 0
82 -68 83 0
82 68 83 0
-83 -69 -516 84 0
-83 -69 516 -84 0
-83 69 -517 84 0
-83 69 517 -84 0
83 -69 -518 84 0
83 -69 518 -84 0
83 69 -519 84 0
83 69 519 -84 0
-84 -70 85 0
-84 70 85 0
84 -70 85 0
84 70 -85 0
-85 -71 -524 86 0
-85 -71 524 -86 0
-85 71 -525 86 0
-85 71 525 -86 0
85 -71 -526 86 0
85 -71 526 -86 0
85 71 -527 86 0
85 71 527 -86 0
-86 -72 -87 0
-86 72 -87 0
86 -72 -87 0
86 72 87 0
-87 -73 -88 0
-87 73 88 0
87 -73 88 0
87 73 -88 0
-88 -74 -89 0
-88 74 -89 0
88 -74 89 0
88 74 89 0
-89 -75 -90 0
-89 75 -90 0
89 -75 90 0
89 75 90 0
-76 -91 0
76 91 0
-91 -77 -92 0
-91 77 -92 0
91 -77 -92 0
91 77 92 0
-92 -78 93 0
-92 78 -93 0
92 -78 -93 0
92 78 93 0
-93 -79 -554 94 0
-93 -79 554 -94 0
-93 79 -555 94 0
-93 79 555 -94 0
93 -79 -556 94 0
93 -79 556 -94 0
93 79 -557 94 0
93 79 557 -94 0
-94 -80 95 0
-94 80 -95 0
94 -80 -95 0
94 80 95 0
-95 -81 -562 96 0
-95 -81 562 -96 0
-95 81 -563 96 0
-95 81 563 -96 0
95 -81 -564 96 0
95 -81 564 -96 0
95 81 -565 96 0
95 81 565 -96 0
-96 -82 -97 0
-96 82 -97 0
96 -82 -97 0
96 82 97 0
-97 -83 -98 0
-97 83 98 0
97 -83 98 0
97 83 98 0
-98 -84 -99 0
-98 84 99 0
98 -84 99 0
98 84 99 0
-99 -85 -578 100 0
-99 -85 578 -100 0
-99 85 -579 100 0
-99 85 579 -100 0
99 -85 -580 100 0
99 -85 580 -100 0
99 85 -581 100 0
99 85 581 -100 0
-100 -86 101 0
-100 86 -101 0
100 -86 -101 0
100 86 -101 0
-101 -87 -102 0
-101 87 -102 0
101 -87 -102 0
101 87 102 0
-102 -88 -103 0
-102 88 103 0
102 -88 -103 0
102 88 103 0
-103 -89 -594 104 0
-103 -89 594 -104 0
-103 89 -595 104 0
-103 89 595 -104 0
103 -89 -596 104 0
103 -89 596 -104 0
103 89 -597 104 0
103 89 597 -104 0
-104 -90 105 0
-104 90 -105 0
104 -90 -105 0
104 90 -105 0
-91 106 0
91 -106 0
-106 -92 -107 0
-106 92 107 0
106 -92 107 0
106 92 107 0
-107 -93 108 0
-107 93 108 0
107 -93 -108 0
107 93 108 0
-108 -94 -109 0
-108 94 109 0
108 -94 -109 0
108 94 109 0
-109 -95 -110 0
-109 95 -110 0
109 -95 -110 0
109 95 110 0
-110 -96 -620 111 0
-110 -96 620 -111 0
-110 96 -621 111 0
-110 96 621 -111 0
110 -96 -622 111 0
110 -96 622 -111 0
110 96 -623 111 0
110 96 623 -111 0
-111 -97 -624 112 0
-111 -97 624 -112 0
-111 97 -625 112 0
-111 97 625 -112 0
111 -97 -626 112 0
111 -97 626 -112 0
111 97 -627 112 0
111 97 627 -112 0
-112 -98 -113 0
-112 98 113 0
112 -98 113 0
112 98 -113 0
-113 -99 -114 0
-113 99 114 0
113 -99 -114 0
113 99 -114 0
-114 -100 -636 115 0
-114 -100 636 -115 0
-114 100 -637 115 0
-114 100 637 -115 0
114 -100 -638 115 0
114 -100 638 -115 0
114 100 -639 115 0
114 100 639 -115 0
-115 -101 -640 116 0
-115 -101 640 -116 0
-115 101 -641 116 0
-115 101 641 -116 0
115 -101 -642 116 0
115 -101 642 -116 0
115 101 -643 116 0
115 101 643 -116 0
-116 -102 -644 117 0
-116 -102 644 -117 0
-116 102 -645 117 0
-116 102 645 -117 0
116 -102 -646 117 0
116 -102 646 -117 0
116 102 -647 117 0
116 102 647 -117 0
-117 -103 -118 0
-117 103 118 0
117 -103 -118 0
117 103 -118 0
-118 -104 -652 119 0
-118 -104 652 -119 0
-118 104 -653 119 0
-118 104 653 -119 0
118 -104 -654 119 0
118 -104 654 -119 0
118 104 -655 119 0
118 104 655 -119 0
-119 -105 -120 0
-119 105 -120 0
119 -105 -120 0
119 105 120 0
-106 121 0
106 -121 0
-121 -107 122 0
-121 107 -122 0
121 -107 -122 0
121 107 122 0
-122 -108 -123 0
-122 108 123 0
122 -108 123 0
122 108 -123 0
-123 -109 124 0
-123 109 124 0
123 -109 -124 0
123 109 -124 0
-124 -110 125 0
-124 110 -125 0
124 -110 -125 0
124 110 -125 0
-125 -111 126 0
-125 111 -126 0
125 -111 126 0
125 111 -126 0
-126 -112 127 0
-126 112 127 0
126 -112 -127 0
126 112 -127 0
-127 -113 -128 0
-127 113 128 0
127 -113 128 0
127 113 -128 0
-128 -114 129 0
-128 114 -129 0
128 -114 129 0
128 114 -129 0
-129 -115 -130 0
-129 115 -130 0
129 -115 130 0
129 115 -130 0
-130 -116 131 0
-130 116 131 0
130 -116 131 0
130 116 -131 0
-131 -117 -702 132 0
-131 -117 702 -132 0
-131 117 -703 132 0
-131 117 703 -132 0
131 -117 -704 132 0
131 -117 704 -132 0
131 117 -705 132 0
131 117 705 -132 0
-132 -118 -133 0
-132 118 -133 0
132 -118 133 0
132 118 -133 0
-133 -119 134 0
-133 119 -134 0
133 -119 134 0
133 119 134 0
-134 -120 -714 135 0
-134 -120 714 -135 0
-134 120 -715 135 0
-134 120 715 -135 0
134 -120 -716 135 0
134 -120 716 -135 0
134 120 -717 135 0
134 120 717 -135 0
-121 -136 0
121 136 0
-136 -122 -720 137 0
-136 -122 720 -137 0
-136 122 -721 137 0
-136 122 721 -137 0
136 -122 -722 137 0
136 -122 722 -137 0
136 122 -723 137 0
136 122 723 -137 0
-137 -123 -138 0
-137 123 138 0
137 -123 138 0
137 123 -138 0
-138 -124 -139 0
-138 124 139 0
138 -124 -139 0
138 124 139 0
-139 -125 -140 0
-139 125 140 0
139 -125 -140 0
139 125 140 0
-140 -126 -141 0
-140 126 -141 0
140 -126 -141 0
140 126 141 0
-141 -127 -142 0
-141 127 142 0
141 -127 -142 0
141 127 142 0
-142 -128 143 0
-142 128 -143 0
142 -128 143 0
142 128 -143 0
-143 -129 -144 0
-143 129 144 0
143 -129 144 0
143 129 -144 0
-144 -130 145 0
-144 130 -145 0
144 -130 145 0
144 130 145 0
-145 -131 146 0
-145 131 -146 0
145 -131 -146 0
145 131 146 0
-146 -132 147 0
-146 132 -147 0
146 -132 147 0
146 132 147 0
-147 -133 -148 0
-147 133 148 0
147 -133 -148 0
147 133 -148 0
-148 -134 -768 149 0
-148 -134 768 -149 0
-148 134 -769 149 0
-148 134 769 -149 0
148 -134 -770 149 0
148 -134 770 -149 0
148 134 -771 149 0
148 134 771 -149 0
-149 -135 150 0
-149 135 -150 0
149 -135 150 0
149 135 -150 0
-136 -151 0
136 151 0
-151 -137 -778 152 0
-151 -137 778 -152 0
-151 137 -779 152 0
-151 137 779 -152 0
151 -137 -780 152 0
151 -137 780 -152 0
151 137 -781 152 0
151 137 781 -152 0
-152 -138 -782 153 0
-152 -138 782 -153 0
-152 138 -783 153 0
-152 138 783 -153 0
152 -138 -784 153 0
152 -138 784 -153 0
152 138 -785 153 0
152 138 785 -153 0
-153 -139 -154 0
-153 139 154 0
153 -139 -154 0
153 139 154 0
-154 -140 155 0
-154 140 155 0
154 -140 -155 0
154 140 155 0
-155 -141 -794 156 0
-155 -141 794 -156 0
-155 141 -795 156 0
-155 141 795 -156 0
155 -141 -796 156 0
155 -141 796 -156 0
155 141 -797 156 0
155 141 797 -156 0
-156 -142 -157 0
-156 142 157 0
156 -142 157 0
156 142 157 0
-157 -143 158 0
-157 143 158 0
157 -143 158 0
157 143 -158 0
-158 -144 159 0
-158 144 159 0
158 -144 -159 0
158 144 159 0
-159 -145 160 0
-159 145 160 0
159 -145 -160 0
159 145 -160 0
-160 -146 -161 0
-160 146 161 0
160 -146 161 0
160 146 161 0
-161 -147 -818 162 0
-161 -147 818 -162 0
-161 147 -819 162 0
-161 147 819 -162 0
161 -147 -820 162 0
161 -147 820 -162 0
161 147 -821 162 0
161 147 821 -162 0
-162 -148 -163 0
-162 148 -163 0
162 -148 -163 0
162 148 163 0
-163 -149 164 0
-163 149 -164 0
163 -149 -164 0
163 149 -164 0
-164 -150 -830 165 0
-164 -150 830 -165 0
-164 150 -831 165 0
-164 150 831 -165 0
164 -150 -832 165 0
164 -150 832 -165 0
164 150 -833 165 0
164 150 833 -165 0
-151 -166 0
151 166 0
-166 -152 167 0
-166 152 167 0
166 -152 167 0
166 152 -167 0
-167 -153 168 0
-167 153 -168 0
167 -153 -168 0
167 153 -168 0
-168 -154 169 0
-168 154 -169 0
168 -154 -169 0
168 154 169 0
-169 -155 -170 0
-169 155 -170 0
169 -155 170 0
169 155 -170 0
-170 -156 171 0
-170 156 -171 0
170 -156 171 0
170 156 171 0
-171 -157 172 0
-171 157 172 0
171 -157 -172 0
171 157 172 0
-172 -158 -860 173 0
-172 -158 860 -173 0
-172 158 -861 173 0
-172 158 861 -173 0
172 -158 -862 173 0
172 -158 862 -173 0
172 158 -863 173 0
172 158 863 -173 0
-173 -159 -864 174 0
-173 -159 864 -174 0
-173 159 -865 174 0
-173 159 865 -174 0
173 -159 -866 174 0
173 -159 866 -174 0
173 159 -867 174 0
173 159 867 -174 0
-174 -160 -175 0
-174 160 -175 0
174 -160 -175 0
174 160 175 0
-175 -161 176 0
-175 161 -176 0
175 -161 176 0
175 161 176 0
-176 -162 -876 177 0
-176 -162 876 -177 0
-176 162 -877 177 0
-176 162 877 -177 0
176 -162 -878 177 0
176 -162 878 -177 0
176 162 -879 177 0
176 162 879 -177 0
-177 -163 -880 178 0
-177 -163 880 -178 0
-177 163 -881 178 0
-177 163 881 -178 0
177 -163 -882 178 0
177 -163 882 -178 0
177 163 -883 178 0
177 163 883 -178 0
-178 -164 179 0
-178 164 -179 0
178 -164 179 0
178 164 179 0
-179 -165 180 0
-179 165 -180 0
179 -165 -180 0
179 165 180 0
-166 -892 181 0
-166 892 -181 0
166 -893 181 0
166 893 -181 0
-181 -167 -182 0
-181 167 182 0
181 -167 182 0
181 167 -182 0
-182 -168 -183 0
-182 168 183 0
182 -168 -183 0
182 168 -183 0
-183 -169 -902 184 0
-183 -169 902 -184 0
-183 169 -903 184 0
-183 169 903 -184 0
183 -169 -904 184 0
183 -169 904 -184 0
183 169 -905 184 0
183 169 905 -184 0
-184 -170 -906 185 0
-184 -170 906 -185 0
-184 170 -907 185 0
-184 170 907 -185 0
184 -170 -908 185 0
184 -170 908 -185 0
184 170 -909 185 0
184 170 909 -185 0
-185 -171 -910 186 0
-185 -171 910 -186 0
-185 171 -911 186 0
-185 171 911 -186 0
185 -171 -912 186 0
185 -171 912 -186 0
185 171 -913 186 0
185 171 913 -186 0
-186 -172 -914 187 0
-186 -172 914 -187 0
-186 172 -915 187 0
-186 172 915 -187 0
186 -172 -916 187 0
186 -172 916 -187 0
186 172 -917 187 0
186 172 917 -187 0
-187 -173 188 0
-187 173 -188 0
187 -173 -188 0
187 173 188 0
-188 -174 -922 189 0
-188 -174 922 -189 0
-188 174 -923 189 0
-188 174 923 -189 0
188 -174 -924 189 0
188 -174 924 -189 0
188 174 -925 189 0
188 174 925 -189 0
-189 -175 190 0
-189 175 190 0
189 -175 190 0
189 175 -190 0
-190 -176 -930 191 0
-190 -176 930 -191 0
-190 176 -931 191 0
-190 176 931 -191 0
190 -176 -932 191 0
190 -176 932 -191 0
190 176 -933 191 0
190 176 933 -191 0
-191 -177 192 0
-191 177 192 0
191 -177 -192 0
191 177 192 0
-192 -178 193 0
-192 178 193 0
192 -178 193 0
192 178 -193 0
-193 -179 -194 0
-193 179 -194 0
193 -179 -194 0
193 179 194 0
-194 -180 195 0
-194 180 195 0
194 -180 -195 0
194 180 -195 0
-181 -196 0
181 196 0
-196 -182 -952 197 0
-196 -182 952 -197 0
-196 182 -953 197 0
-196 182 953 -197 0
196 -182 -954 197 0
196 -182 954 -197 0
196 182 -955 197 0
196 182 955 -197 0
-197 -183 198 0
-197 183 198 0
197 -183 198 0
197 183 -198 0
-198 -184 199 0
-198 184 -199 0
198 -184 199 0
198 184 199 0
-199 -185 -200 0
-199 185 200 0
199 -185 -200 0
199 185 -200 0
-200 -186 -968 201 0
-200 -186 968 -201 0
-200 186 -969 201 0
-200 186 969 -201 0
200 -186 -970 201 0
200 -186 970 -201 0
200 186 -971 201 0
200 186 971 -201 0
-201 -187 202 0
-201 187 -202 0
201 -187 202 0
201 187 202 0
-202 -188 203 0
-202 188 -203 0
202 -188 203 0
202 188 203 0
-203 -189 -204 0
-203 189 -204 0
203 -189 204 0
203 189 204 0
-204 -190 205 0
-204 190 205 0
204 -190 -205 0
204 190 -205 0
-205 -191 -988 206 0
-205 -191 988 -206 0
-205 191 -989 206 0
-205 191 989 -206 0
205 -191 -990 206 0
205 -191 990 -206 0
205 191 -991 206 0
205 191 991 -206 0
-206 -192 -992 207 0
-206 -192 992 -207 0
-206 192 -993 207 0
-206 192 993 -207 0
206 -192 -994 207 0
206 -192 994 -207 0
206 192 -995 207 0
206 192 995 -207 0
-207 -193 208 0
-207 193 -208 0
207 -193 -208 0
207 193 208 0
-208 -194 209 0
-208 194 -209 0
208 -194 -209 0
208 194 -209 0
-209 -195 210 0
-209 195 210 0
209 -195 -210 0
209 195 -210 0
-196 211 0
196 -211 0
-211 -197 212 0
-211 197 212 0
211 -197 -212 0
211 197 212 0
-212 -198 213 0
-212 198 213 0
212 -198 213 0
212 198 -213 0
-213 -199 -214 0
-213 199 -214 0
213 -199 214 0
213 199 -214 0
-214 -200 -1022 215 0
-214 -200 1022 -215 0
-214 200 -1023 215 0
-214 200 1023 -215 0
214 -200 -1024 215 0
214 -200 1024 -215 0
214 200 -1025 215 0
214 200 1025 -215 0
-215 -201 -1026 216 0
-215 -201 1026 -216 0
-215 201 -1027 216 0
-215 201 1027 -216 0
215 -201 -1028 216 0
215 -201 1028 -216 0
215 201 -1029 216 0
215 201 1029 -216 0
-216 -202 -1030 217 0
-216 -202 1030 -217 0
-216 202 -1031 217 0
-216 202 1031 -217 0
216 -202 -1032 217 0
216 -202 1032 -217 0
216 202 -1033 217 0
216 202 1033 -217 0
-217 -203 218 0
-217 203 218 0
217 -203 -218 0
217 203 -218 0
-218 -204 -1038 219 0
-218 -204 1038 -219 0
-218 204 -1039 219 0
-218 204 1039 -219 0
218 -204 -1040 219 0
218 -204 1040 -219 0
218 204 -1041 219 0
218 204 1041 -219 0
-219 -205 220 0
-219 205 220 0
219 -205 220 0
219 205 -220 0
-220 -206 221 0
-220 206 221 0
220 -206 -221 0
220 206 -221 0
-221 -207 -222 0
-221 207 -222 0
221 -207 -222 0
221 207 222 0
-222 -208 223 0
-222 208 -223 0
222 -208 -223 0
222 208 223 0
-223 -209 224 0
-223 209 -224 0
223 -209 -224 0
223 209 -224 0
-224 -210 -1062 225 0
-224 -210 1062 -225 0
-224 210 -1063 225 0
-224 210 1063 -225 0
224 -210 -1064 225 0
224 -210 1064 -225 0
224 210 -1065 225 0
224 210 1065 -225 0
225 0
