data/benchmarks/bayes/75-15-8-q.gr
p tw 1065 1316
166 181
198 213
192 993
8 9
44 420
40 41
199 214
41 42
189 923
73 74
74 484
165 831
171 911
74 75
39 346
106 107
120 716
85 578
7 21
107 108
77 494
147 818
40 54
140 141
206 989
73 87
173 174
94 555
206 207
102 644
196 953
207 208
139 153
172 186
4 230
205 220
172 860
25 289
173 187
30 367
22 283
206 220
151 778
44 423
71 526
113 114
2 17
216 1029
146 147
3 18
35 50
39 349
179 180
219 1039
36 51
85 581
68 83
174 924
69 84
101 116
150 832
113 127
213 214
206 992
2 259
102 117
59 421
146 160
135 150
179 193
185 910
99 578
168 183
161 818
10 11
100 579
81 565
43 44
17 257
76 77
9 24
177 883
27 41
116 644
42 57
60 483
117 645
60 74
122 723
75 90
218 1041
108 123
13 300
44 367
96 563
109 124
142 157
136 720
16 17
175 190
85 525
182 952
193 207
49 50
158 860
208 223
32 375
134 768
50 51
82 83
8 283
188 924
83 84
115 116
34 48
16 259
172 915
116 117
67 81
167 168
49 63
149 150
63 492
100 114
200 201
82 96
182 183
133 147
115 129
184 903
215 216
122 137
95 565
192 992
167 181
200 214
2 229
74 483
201 969
136 723
120 715
182 955
115 636
77 493
158 863
134 771
11 26
44 59
94 554
137 781
156 794
132 702
96 111
196 952
129 144
46 375
89 596
202 1031
197 952
111 620
162 177
25 288
4 265
144 159
173 860
22 282
195 210
149 768
18 19
177 192
192 995
44 422
11 245
210 225
152 778
189 925
21 331
165 833
3 17
103 104
171 913
104 594
39 348
85 86
36 50
85 580
136 137
118 119
147 820
174 923
69 83
169 170
150 831
56 409
151 152
206 991
102 116
202 203
59 420
207 992
103 117
135 149
102 646
134 715
185 909
168 182
196 955
17 315
186 910
73 475
100 578
169 183
79 555
25 26
162 818
81 564
202 216
25 291
30 369
9 23
28 301
151 780
178 883
117 644
122 722
31 46
216 1031
10 288
32 47
176 177
44 366
65 80
219 1041
109 123
209 210
45 367
191 192
98 113
142 156
224 225
131 146
59 423
175 189
85 524
164 179
176 190
86 525
208 222
6 7
197 212
185 912
99 580
209 223
161 820
39 40
188 923
100 581
72 73
172 914
164 830
5 19
17 259
38 53
210 1062
116 646
6 20
71 86
60 485
39 53
104 119
184 902
31 314
72 86
105 120
95 564
137 152
44 369
96 565
138 153
12 13
171 186
2 228
201 968
13 14
136 722
3 229
204 219
85 527
182 954
24 288
46 47
78 79
158 862
79 80
11 25
134 770
153 783
215 1023
12 26
112 113
44 58
191 931
1 16
45 59
145 146
172 917
25 346
78 92
178 179
89 595
111 125
211 212
4 264
112 126
212 213
144 158
145 159
177 191
192 994
187 915
178 192
210 224
224 1062
21 330
74 485
120 717
7 22
115 638
77 495
147 819
8 23
40 55
56 408
184 185
41 56
73 88
94 556
100 636
156 796
74 89
106 121
132 704
196 954
107 122
139 154
17 314
73 474
79 554
202 1033
140 155
172 187
4 231
135 714
141 794
28 359
172 861
184 198
197 954
111 622
14 15
25 290
117 702
173 188
30 368
47 48
206 221
151 779
48 49
80 81
96 620
152 780
81 82
14 28
104 596
114 115
47 61
147 148
174 925
80 94
150 833
113 128
56 411
206 993
59 422
181 182
146 161
214 215
179 194
134 717
41 409
185 911
21 22
147 161
180 195
17 317
161 819
186 912
73 477
100 580
54 55
162 820
87 88
88 89
58 475
28 303
21 35
121 122
153 154
117 646
10 25
54 68
216 1033
154 155
155 794
105 119
43 58
87 101
13 301
187 188
32 314
44 368
201 1026
96 564
76 91
120 134
45 369
220 221
153 167
3 228
85 526
86 527
153 782
215 1022
188 925
10 244
191 930
172 916
16 31
164 832
49 64
210 1064
63 493
82 97
55 408
83 98
115 130
184 904
116 131
167 182
187 914
149 164
200 215
23 24
225 1062
182 197
56 466
201 970
24 25
56 57
115 637
57 58
89 90
177 877
8 22
153 785
159 865
27 300
97 624
41 55
141 142
23 37
123 124
156 795
74 88
174 175
56 70
156 157
132 703
138 783
25 348
107 121
200 1023
89 103
189 190
176 931
202 1032
89 597
140 154
28 358
222 223
197 953
111 621
141 155
4 266
173 861
174 188
149 769
207 221
187 917
69 516
63 64
224 1064
152 779
21 332
104 595
18 33
147 821
130 131
56 410
163 164
207 993
100 638
196 197
103 118
70 466
102 647
134 716
41 408
136 151
180 194
118 133
17 316
186 911
73 476
169 184
79 556
135 716
151 166
162 819
141 796
172 863
111 624
202 217
117 704
58 474
28 302
77 78
151 781
96 622
10 24
152 782
110 111
216 1032
25 40
10 289
42 358
43 57
143 144
18 265
45 368
77 91
83 516
206 995
110 124
191 988
17 18
143 157
176 191
86 526
35 331
41 411
185 913
99 581
209 224
161 821
186 914
170 906
84 85
164 831
5 20
17 31
117 118
210 1063
58 477
116 647
6 21
50 64
39 54
83 97
183 184
163 880
31 315
72 87
84 98
93 555
116 130
216 217
13 303
32 316
198 199
117 131
149 163
150 164
204 1038
182 196
3 230
183 197
110 621
24 289
177 876
153 784
159 864
215 1024
12 27
191 932
13 28
45 60
138 782
25 347
103 595
46 61
78 93
205 988
200 1022
176 930
63 495
79 94
111 126
112 127
184 906
58 421
145 160
104 653
19 20
187 916
178 193
224 1063
20 21
52 53
225 1064
169 903
56 468
53 54
78 492
115 639
86 87
18 32
177 879
19 33
119 120
27 302
97 626
52 66
152 153
94 557
186 969
100 637
156 797
162 877
85 99
185 186
132 705
138 785
71 466
186 187
118 132
218 219
119 133
135 715
219 220
141 795
28 360
172 862
47 373
184 199
197 955
111 623
117 703
23 281
152 166
173 863
112 624
149 771
59 60
185 199
69 518
92 93
96 621
152 781
25 39
125 126
40 347
14 29
104 597
158 159
15 30
47 62
18 264
59 73
159 160
48 63
19 265
80 95
92 106
192 193
206 994
118 652
81 96
84 516
125 139
207 995
114 129
183 903
70 468
158 172
35 330
41 410
147 162
191 205
36 331
186 913
162 821
22 23
111 626
200 969
55 56
176 877
58 476
114 636
21 36
117 647
152 784
54 69
10 291
155 795
42 360
93 554
87 102
13 302
32 315
201 1027
88 103
131 702
18 267
120 135
121 136
153 168
83 518
154 169
110 620
28 29
187 202
148 768
35 333
29 30
61 62
10 245
62 63
170 908
94 95
13 27
95 96
164 833
127 128
103 594
210 1065
28 42
128 129
160 161
63 494
79 93
161 162
55 409
184 905
94 108
163 882
194 195
31 317
58 420
101 641
93 557
127 141
104 652
166 892
160 174
225 1063
204 1040
137 721
72 475
169 902
56 467
201 971
24 291
177 878
159 866
27 301
134 135
215 1026
97 625
23 38
186 968
162 876
56 71
138 784
25 349
200 1024
57 72
89 104
201 202
176 932
90 105
47 372
134 148
141 156
4 267
23 280
123 138
173 862
184 908
58 423
149 770
174 189
156 171
104 655
207 222
69 517
189 204
224 1065
31 32
21 333
40 346
169 905
64 65
15 29
78 494
115 641
97 98
48 62
19 264
148 149
30 44
63 78
81 95
207 994
186 971
100 639
119 652
114 128
183 902
70 467
162 879
71 468
36 330
79 557
148 162
135 717
4 5
141 797
111 625
117 705
37 38
173 865
200 968
196 211
112 626
176 876
70 71
32 373
96 623
8 281
152 783
214 1023
10 290
42 359
190 931
155 156
137 138
88 102
18 266
188 189
43 359
170 171
77 92
19 267
221 222
83 517
203 204
110 125
154 168
84 518
191 989
143 158
155 169
183 905
187 201
35 332
188 202
36 333
186 915
170 907
51 52
200 971
17 32
176 879
114 638
50 65
163 881
31 316
101 640
155 797
51 65
84 99
93 556
32 317
201 1029
117 132
131 704
150 165
204 1039
46 373
137 720
72 474
3 231
183 198
110 622
24 290
148 770
58 59
215 1025
91 92
191 933
216 1026
24 38
124 125
103 596
205 989
57 71
157 158
139 140
58 72
90 104
190 191
172 173
55 411
2 256
123 137
223 224
184 907
58 422
101 643
124 138
156 170
104 654
157 171
185 907
189 203
75 483
190 204
225 1065
137 723
72 477
169 904
56 469
81 562
78 493
115 640
177 880
116 641
19 34
63 77
178 881
27 303
215 1028
97 627
20 35
122 720
52 67
186 970
53 68
162 878
85 100
218 1038
71 467
86 101
130 144
119 134
28 361
163 177
47 374
23 282
152 167
173 864
112 625
26 27
185 200
174 865
27 28
32 372
186 201
69 519
8 280
214 1022
40 348
190 930
93 94
16 256
26 40
115 643
126 127
59 74
43 358
19 266
92 107
118 653
84 517
125 140
119 654
183 904
70 469
93 107
193 194
95 562
158 173
126 140
159 174
191 206
36 332
33 34
192 207
111 627
34 35
66 67
173 867
200 970
67 68
176 878
99 100
114 637
100 101
132 133
217 1031
152 785
33 47
133 134
214 1025
155 796
42 361
22 37
137 778
190 933
66 80
166 167
201 1028
55 70
131 703
99 113
199 200
43 361
46 372
132 146
83 519
165 179
191 991
198 212
148 769
199 213
186 917
170 909
189 922
165 830
171 910
28 43
29 44
61 76
205 206
206 988
55 410
62 77
94 109
163 883
101 642
95 110
127 142
166 893
185 906
128 143
160 175
75 482
2 3
204 1041
161 176
137 722
72 476
205 219
3 4
35 36
194 209
30 366
36 37
68 69
116 640
159 867
69 70
178 880
101 102
71 525
215 1027
20 34
2 16
102 103
216 1028
53 67
35 49
86 100
205 991
200 1025
219 1038
68 82
168 169
176 933
101 115
134 149
2 258
184 909
174 864
9 10
186 200
42 43
201 216
75 485
108 109
78 495
115 642
17 256
109 110
177 882
116 643
30 45
42 56
60 482
142 143
75 89
119 653
175 176
181 893
64 79
218 1040
108 122
208 209
71 469
96 562
159 173
97 112
148 163
192 206
181 196
173 866
112 627
5 6
174 867
32 374
8 282
217 1030
214 1024
4 19
22 36
122 123
190 932
16 258
37 52
55 69
43 360
70 85
118 655
84 519
191 990
122 136
155 170
188 203
11 12
170 185
186 916
44 45
203 218
74 482
120 714
96 97
77 492
114 639
29 43
129 130
111 112
217 1033
62 76
162 163
144 145
51 66
137 780
95 109
177 178
96 110
128 142
131 705
129 143
161 175
46 374
202 1030
162 176
194 208
110 623
22 281
195 209
148 771
44 421
71 524
11 244
189 924
216 1027
24 39
165 832
171 912
39 347
103 597
205 990
85 579
174 922
58 73
150 830
206 990
2 257
91 106
217 218
124 139
102 645
134 714
157 172
185 908
201 215
75 484
190 205
32 33
81 563
65 66
177 881
116 642
98 99
28 300
178 882
71 527
215 1029
122 721
131 132
216 1030
32 46
181 892
64 78
164 165
218 1039
65 79
97 111
219 1040
197 198
130 145
45 366
98 112
163 178
47 375
23 283
131 145
38 39
174 866
164 178
86 524
71 72
197 211
99 579
188 922
4 18
104 105
40 349
16 257
37 51
26 41
17 258
38 52
138 139
70 84
27 42
116 645
71 85
171 172
60 484
118 654
60 75
104 118
204 205
119 655
93 108
95 563
137 151
126 141
138 152
170 184
171 185
203 217
1 2
136 721
204 218
182 953
193 208
158 861
134 769
217 1032
33 48
137 779
34 49
66 81
67 82
99 114
89 594
100 115
132 147
133 148
165 180
22 280
7 8
